
Gurobi 7.0.1 (win64, Python) logging started 11/06/17 12:03:35

Changed value of parameter MIPGap to 0.05
   Prev: 0.0001  Min: 0.0  Max: 1e+100  Default: 0.0001
Changed value of parameter TimeLimit to 1800.0
   Prev: 1e+100  Min: 0.0  Max: 1e+100  Default: 1e+100
Changed value of parameter Method to 2
   Prev: -1  Min: -1  Max: 4  Default: -1
Changed value of parameter MIPFocus to 1
   Prev: 0  Min: 0  Max: 3  Default: 0
Optimize a model with 3648 rows, 5322 columns and 10644 nonzeros
Variable types: 0 continuous, 5322 integer (5322 binary)
Coefficient statistics:
  Matrix range     [1e+00, 5e+00]
  Objective range  [1e+00, 1e+00]
  Bounds range     [1e+00, 1e+00]
  RHS range        [8e+01, 8e+01]
Found heuristic solution: objective 0
Presolve removed 3598 rows and 4335 columns
Presolve time: 0.03s
Presolved: 50 rows, 987 columns, 1550 nonzeros
Found heuristic solution: objective -1722.775000
Variable types: 0 continuous, 987 integer (835 binary)
Presolved: 50 rows, 987 columns, 1550 nonzeros

Root barrier log...

Ordering time: 0.00s

Barrier statistics:
 AA' NZ     : 4.960e+02
 Factor NZ  : 1.275e+03
 Factor Ops : 4.293e+04 (less than 1 second per iteration)
 Threads    : 1

                  Objective                Residual
Iter       Primal          Dual         Primal    Dual     Compl     Time
   0  -3.48088089e+03 -3.19005698e+03  2.54e+01 4.44e-16  2.46e+00     0s
   1  -1.87042058e+03 -2.52898654e+03  2.17e+00 3.34e-01  5.19e-01     0s
   2  -1.76956368e+03 -1.89961299e+03  3.91e-02 3.02e-02  6.71e-02     0s
   3  -1.78841696e+03 -1.82427360e+03  1.51e-02 4.44e-15  1.87e-02     0s
   4  -1.79998980e+03 -1.81293430e+03  2.51e-03 2.22e-15  6.58e-03     0s
   5  -1.80261786e+03 -1.80855712e+03  1.17e-03 9.84e-16  3.02e-03     0s
   6  -1.80435396e+03 -1.80707474e+03  3.97e-04 8.88e-16  1.38e-03     0s
   7  -1.80492417e+03 -1.80601969e+03  1.86e-04 1.04e-15  5.56e-04     0s
   8  -1.80528236e+03 -1.80559140e+03  6.30e-05 8.88e-16  1.58e-04     0s
   9  -1.80546017e+03 -1.80553775e+03  5.97e-06 9.38e-16  3.91e-05     0s
  10  -1.80549549e+03 -1.80549814e+03  0.00e+00 1.78e-15  1.33e-06     0s
  11  -1.80549725e+03 -1.80549725e+03  0.00e+00 1.33e-15  7.95e-10     0s

Barrier solved model in 11 iterations and 0.16 seconds
Optimal objective -1.80549725e+03


Root relaxation: objective -1.805497e+03, 24 iterations, 0.08 seconds

    Nodes    |    Current Node    |     Objective Bounds      |     Work
 Expl Unexpl |  Obj  Depth IntInf | Incumbent    BestBd   Gap | It/Node Time

     0     0 -1805.4972    0   28 -1722.7750 -1805.4972  4.80%     -    0s

Explored 0 nodes (24 simplex iterations) in 0.20 seconds
Thread count was 8 (of 8 available processors)

Solution count 2: -1722.78 -616.38 
Pool objective bound -1805.5

Optimal solution found (tolerance 5.00e-02)
Best objective -1.722775000000e+03, best bound -1.805495000000e+03, gap 4.8016%
Changed value of parameter MIPGap to 0.05
   Prev: 0.0001  Min: 0.0  Max: 1e+100  Default: 0.0001
Changed value of parameter TimeLimit to 1800.0
   Prev: 1e+100  Min: 0.0  Max: 1e+100  Default: 1e+100
Changed value of parameter Method to 2
   Prev: -1  Min: -1  Max: 4  Default: -1
Changed value of parameter MIPFocus to 1
   Prev: 0  Min: 0  Max: 3  Default: 0
Optimize a model with 3648 rows, 5322 columns and 10644 nonzeros
Variable types: 0 continuous, 5322 integer (5322 binary)
Coefficient statistics:
  Matrix range     [1e+00, 5e+00]
  Objective range  [1e+00, 2e+00]
  Bounds range     [1e+00, 1e+00]
  RHS range        [8e+01, 8e+01]
Found heuristic solution: objective 0
Presolve removed 3598 rows and 4335 columns
Presolve time: 0.00s
Presolved: 50 rows, 987 columns, 1550 nonzeros
Found heuristic solution: objective -1859.550000
Variable types: 0 continuous, 987 integer (835 binary)
Presolved: 50 rows, 987 columns, 1550 nonzeros

Root barrier log...

Ordering time: 0.00s

Barrier statistics:
 AA' NZ     : 4.960e+02
 Factor NZ  : 1.275e+03
 Factor Ops : 4.293e+04 (less than 1 second per iteration)
 Threads    : 1

                  Objective                Residual
Iter       Primal          Dual         Primal    Dual     Compl     Time
   0  -3.72451940e+03 -3.24609406e+03  2.54e+01 4.44e-16  2.35e+00     0s
   1  -2.01017985e+03 -2.60479219e+03  2.16e+00 2.92e-01  4.82e-01     0s
   2  -1.90057767e+03 -2.02484391e+03  6.20e-02 2.69e-02  6.54e-02     0s
   3  -1.92092267e+03 -1.96330205e+03  1.91e-02 6.22e-15  2.21e-02     0s
   4  -1.93091662e+03 -1.94475870e+03  4.47e-03 1.33e-15  7.11e-03     0s
   5  -1.93483900e+03 -1.94044903e+03  1.39e-03 8.88e-16  2.86e-03     0s
   6  -1.93574896e+03 -1.93833901e+03  7.28e-04 8.88e-16  1.33e-03     0s
   7  -1.93654969e+03 -1.93746721e+03  2.38e-04 8.88e-16  4.68e-04     0s
   8  -1.93685585e+03 -1.93725076e+03  5.30e-05 9.99e-16  1.99e-04     0s
   9  -1.93694441e+03 -1.93705051e+03  1.96e-05 1.08e-15  5.38e-05     0s
  10  -1.93698890e+03 -1.93700459e+03  2.40e-06 8.88e-16  7.96e-06     0s
  11  -1.93699647e+03 -1.93699895e+03  5.15e-07 1.02e-15  1.27e-06     0s
  12  -1.93699864e+03 -1.93699864e+03  0.00e+00 1.37e-15  1.32e-09     0s

Barrier solved model in 12 iterations and 0.06 seconds
Optimal objective -1.93699864e+03


Root relaxation: objective -1.936999e+03, 27 iterations, 0.05 seconds

    Nodes    |    Current Node    |     Objective Bounds      |     Work
 Expl Unexpl |  Obj  Depth IntInf | Incumbent    BestBd   Gap | It/Node Time

     0     0 -1936.9986    0   30 -1859.5500 -1936.9986  4.16%     -    0s

Explored 0 nodes (29 simplex iterations) in 0.10 seconds
Thread count was 8 (of 8 available processors)

Solution count 2: -1859.55 -658.76 
Pool objective bound -1936.99

Optimal solution found (tolerance 5.00e-02)
Best objective -1.859550000000e+03, best bound -1.936990000000e+03, gap 4.1644%
Changed value of parameter MIPGap to 0.05
   Prev: 0.0001  Min: 0.0  Max: 1e+100  Default: 0.0001
Changed value of parameter TimeLimit to 1800.0
   Prev: 1e+100  Min: 0.0  Max: 1e+100  Default: 1e+100
Changed value of parameter Method to 2
   Prev: -1  Min: -1  Max: 4  Default: -1
Changed value of parameter MIPFocus to 1
   Prev: 0  Min: 0  Max: 3  Default: 0
Optimize a model with 3648 rows, 5322 columns and 10644 nonzeros
Variable types: 0 continuous, 5322 integer (5322 binary)
Coefficient statistics:
  Matrix range     [1e+00, 5e+00]
  Objective range  [1e+00, 3e+00]
  Bounds range     [1e+00, 1e+00]
  RHS range        [8e+01, 8e+01]
Found heuristic solution: objective 0
Presolve removed 3598 rows and 4337 columns
Presolve time: 0.02s
Presolved: 50 rows, 985 columns, 1547 nonzeros
Found heuristic solution: objective -2135.880000
Variable types: 0 continuous, 985 integer (832 binary)
Presolve removed 0 rows and 14 columns
Presolved: 50 rows, 971 columns, 1533 nonzeros

Root barrier log...

Ordering time: 0.00s

Barrier statistics:
 AA' NZ     : 4.960e+02
 Factor NZ  : 1.275e+03
 Factor Ops : 4.293e+04 (less than 1 second per iteration)
 Threads    : 1

                  Objective                Residual
Iter       Primal          Dual         Primal    Dual     Compl     Time
   0  -4.17574760e+03 -4.05073112e+03  2.51e+01 8.88e-16  3.28e+00     0s
   1  -2.22840049e+03 -3.18738061e+03  1.67e+00 4.80e-01  6.79e-01     0s
   2  -2.16391645e+03 -2.40873647e+03  9.22e-02 9.11e-02  1.30e-01     0s
   3  -2.18660638e+03 -2.24218518e+03  2.86e-02 2.39e-03  2.98e-02     0s
   4  -2.19507065e+03 -2.21607224e+03  1.70e-02 1.09e-15  1.17e-02     0s
   5  -2.20088848e+03 -2.21330040e+03  9.31e-03 1.11e-15  6.85e-03     0s
   6  -2.20412542e+03 -2.21053878e+03  5.28e-03 9.99e-16  3.57e-03     0s
   7  -2.20701930e+03 -2.20952186e+03  1.89e-03 9.99e-16  1.38e-03     0s
   8  -2.20776620e+03 -2.20911155e+03  1.08e-03 9.44e-16  7.48e-04     0s
   9  -2.20831017e+03 -2.20891484e+03  4.82e-04 1.17e-15  3.36e-04     0s
  10  -2.20877789e+03 -2.20882719e+03  1.49e-05 1.07e-15  2.58e-05     0s
  11  -2.20879872e+03 -2.20879958e+03  4.11e-07 1.33e-15  4.61e-07     0s
  12  -2.20879935e+03 -2.20879935e+03  0.00e+00 1.11e-15  4.62e-10     0s

Barrier solved model in 12 iterations and 0.07 seconds
Optimal objective -2.20879935e+03


Root relaxation: objective -2.208799e+03, 27 iterations, 0.03 seconds

    Nodes    |    Current Node    |     Objective Bounds      |     Work
 Expl Unexpl |  Obj  Depth IntInf | Incumbent    BestBd   Gap | It/Node Time

     0     0 -2208.7994    0   29 -2135.8800 -2208.7994  3.41%     -    0s

Explored 0 nodes (29 simplex iterations) in 0.10 seconds
Thread count was 8 (of 8 available processors)

Solution count 2: -2135.88 -743.52 
Pool objective bound -2208.78

Optimal solution found (tolerance 5.00e-02)
Best objective -2.135880000000e+03, best bound -2.208780000000e+03, gap 3.4131%
Changed value of parameter MIPGap to 0.05
   Prev: 0.0001  Min: 0.0  Max: 1e+100  Default: 0.0001
Changed value of parameter TimeLimit to 1800.0
   Prev: 1e+100  Min: 0.0  Max: 1e+100  Default: 1e+100
Changed value of parameter Method to 2
   Prev: -1  Min: -1  Max: 4  Default: -1
Changed value of parameter MIPFocus to 1
   Prev: 0  Min: 0  Max: 3  Default: 0
Optimize a model with 3648 rows, 5322 columns and 10644 nonzeros
Variable types: 0 continuous, 5322 integer (5322 binary)
Coefficient statistics:
  Matrix range     [1e+00, 5e+00]
  Objective range  [1e+00, 5e+00]
  Bounds range     [1e+00, 1e+00]
  RHS range        [8e+01, 8e+01]
Found heuristic solution: objective 0
Presolve removed 3598 rows and 4335 columns
Presolve time: 0.01s
Presolved: 50 rows, 987 columns, 1550 nonzeros
Found heuristic solution: objective -2684.000000
Variable types: 0 continuous, 987 integer (835 binary)
Presolve removed 0 rows and 1 columns
Presolved: 50 rows, 986 columns, 1549 nonzeros

Root barrier log...

Ordering time: 0.00s

Barrier statistics:
 AA' NZ     : 4.960e+02
 Factor NZ  : 1.275e+03
 Factor Ops : 4.293e+04 (less than 1 second per iteration)
 Threads    : 1

                  Objective                Residual
Iter       Primal          Dual         Primal    Dual     Compl     Time
   0  -5.19710617e+03 -6.11883229e+03  2.55e+01 8.88e-16  5.82e+00     0s
   1  -2.70057526e+03 -4.67385299e+03  1.16e+00 1.04e+00  1.22e+00     0s
   2  -2.68608209e+03 -3.16613224e+03  2.89e-02 2.08e-01  2.43e-01     0s
   3  -2.74745898e+03 -2.85437806e+03  4.62e-03 2.59e-02  5.37e-02     0s
   4  -2.76160560e+03 -2.80995884e+03  2.19e-03 1.22e-15  2.43e-02     0s
   5  -2.77378904e+03 -2.79347631e+03  7.60e-04 1.78e-15  9.89e-03     0s
   6  -2.78161785e+03 -2.78861876e+03  9.13e-05 1.78e-15  3.49e-03     0s
   7  -2.78292743e+03 -2.78479921e+03  1.51e-05 1.78e-15  9.33e-04     0s
   8  -2.78350976e+03 -2.78393935e+03  5.11e-08 1.78e-15  2.13e-04     0s
   9  -2.78355777e+03 -2.78365700e+03  0.00e+00 1.18e-15  4.94e-05     0s
  10  -2.78358802e+03 -2.78359902e+03  0.00e+00 1.78e-15  5.44e-06     0s
  11  -2.78359028e+03 -2.78359057e+03  0.00e+00 1.78e-15  1.45e-07     0s
  12  -2.78359036e+03 -2.78359036e+03  0.00e+00 1.78e-15  1.77e-10     0s

Barrier solved model in 12 iterations and 0.06 seconds
Optimal objective -2.78359036e+03


Root relaxation: objective -2.783590e+03, 30 iterations, 0.04 seconds

    Nodes    |    Current Node    |     Objective Bounds      |     Work
 Expl Unexpl |  Obj  Depth IntInf | Incumbent    BestBd   Gap | It/Node Time

     0     0 -2783.5904    0   24 -2684.0000 -2783.5904  3.71%     -    0s

Explored 0 nodes (31 simplex iterations) in 0.09 seconds
Thread count was 8 (of 8 available processors)

Solution count 2: -2684 -913.04 
Pool objective bound -2783.56

Optimal solution found (tolerance 5.00e-02)
Best objective -2.684000000000e+03, best bound -2.783560000000e+03, gap 3.7094%
